150
1 4
1 5
1 8
1 9
1 10
1 11
1 14
1 15
1 16
1 19
1 22
1 26
1 27
1 28
1 31
1 32
1 33
1 36
1 37
1 40
1 41
1 43
1 44
1 46
1 47
1 50
1 51
1 52
1 54
1 55
1 58
1 59
1 62
1 65
1 66
1 67
1 68
1 69
1 73
1 74
1 75
1 77
1 78
1 81
1 83
1 84
1 85
1 86
1 88
1 91
1 92
1 93
1 99
1 102
1 106
1 109
1 113
1 114
1 116
1 119
1 121
1 122
1 126
1 127
1 129
1 133
1 135
1 136
1 138
1 140
1 144
1 146
1 147
1 148
1 150
2 6
2 9
2 12
2 15
2 16
2 18
2 20
2 21
2 23
2 24
2 26
2 27
2 28
2 29
2 30
2 31
2 35
2 38
2 41
2 42
2 43
2 44
2 47
2 48
2 50
2 51
2 57
2 58
2 65
2 67
2 68
2 73
2 74
2 76
2 78
2 79
2 80
2 81
2 82
2 83
2 84
2 85
2 87
2 89
2 93
2 96
2 97
2 98
2 99
2 100
2 101
2 105
2 109
2 110
2 111
2 112
2 113
2 115
2 116
2 117
2 119
2 122
2 124
2 127
2 128
2 129
2 131
2 132
2 133
2 135
2 136
2 137
2 141
2 145
2 147
2 148
2 149
3 6
3 7
3 8
3 13
3 14
3 15
3 16
3 18
3 19
3 21
3 22
3 23
3 24
3 25
3 26
3 27
3 29
3 34
3 36
3 41
3 43
3 44
3 45
3 49
3 51
3 53
3 54
3 59
3 60
3 62
3 64
3 66
3 67
3 70
3 72
3 73
3 75
3 78
3 81
3 82
3 84
3 88
3 89
3 91
3 92
3 94
3 99
3 100
3 102
3 103
3 106
3 107
3 112
3 114
3 116
3 119
3 121
3 122
3 123
3 125
3 126
3 127
3 132
3 134
3 137
3 138
3 141
3 142
3 149
4 6
4 8
4 10
4 13
4 14
4 15
4 19
4 21
4 22
4 23
4 24
4 26
4 27
4 31
4 32
4 33
4 34
4 36
4 38
4 39
4 41
4 42
4 43
4 45
4 46
4 51
4 53
4 54
4 56
4 60
4 61
4 64
4 66
4 68
4 69
4 74
4 75
4 77
4 78
4 79
4 80
4 81
4 86
4 89
4 90
4 92
4 94
4 98
4 101
4 102
4 105
4 107
4 109
4 111
4 112
4 113
4 115
4 118
4 119
4 122
4 123
4 125
4 126
4 133
4 136
4 137
4 139
4 141
4 142
4 143
4 146
4 147
5 6
5 8
5 9
5 10
5 11
5 12
5 13
5 14
5 17
5 23
5 26
5 27
5 30
5 31
5 32
5 34
5 36
5 37
5 39
5 40
5 41
5 42
5 43
5 44
5 46
5 47
5 49
5 51
5 52
5 54
5 59
5 60
5 62
5 65
5 68
5 69
5 70
5 71
5 72
5 73
5 77
5 79
5 80
5 84
5 85
5 86
5 87
5 91
5 94
5 95
5 96
5 98
5 99
5 103
5 104
5 105
5 112
5 113
5 115
5 117
5 121
5 124
5 125
5 128
5 130
5 131
5 132
5 133
5 135
5 136
5 137
5 138
5 139
5 140
5 145
5 146
5 147
5 148
5 149
5 150
6 7
6 8
6 9
6 12
6 13
6 15
6 16
6 21
6 25
6 26
6 27
6 28
6 32
6 33
6 35
6 40
6 41
6 44
6 45
6 46
6 48
6 52
6 53
6 55
6 58
6 59
6 65
6 66
6 67
6 69
6 70
6 71
6 73
6 76
6 77
6 78
6 81
6 83
6 84
6 85
6 86
6 87
6 88
6 91
6 97
6 98
6 102
6 103
6 106
6 113
6 115
6 116
6 118
6 122
6 123
6 124
6 125
6 129
6 130
6 133
6 134
6 135
6 138
6 140
6 141
6 142
6 143
6 144
6 145
6 147
6 148
6 149
6 150
7 11
7 13
7 14
7 17
7 18
7 19
7 20
7 21
7 22
7 23
7 24
7 25
7 26
7 27
7 28
7 32
7 40
7 42
7 43
7 48
7 49
7 55
7 56
7 57
7 58
7 61
7 64
7 67
7 68
7 69
7 78
7 79
7 80
7 81
7 82
7 84
7 86
7 90
7 92
7 93
7 94
7 98
7 99
7 100
7 101
7 104
7 106
7 109
7 110
7 113
7 114
7 115
7 117
7 119
7 120
7 122
7 124
7 126
7 127
7 128
7 129
7 130
7 131
7 133
7 134
7 135
7 136
7 137
7 140
7 141
7 142
7 143
7 147
7 148
7 149
7 150
8 11
8 12
8 16
8 17
8 18
8 19
8 21
8 23
8 24
8 25
8 26
8 28
8 31
8 32
8 33
8 34
8 37
8 40
8 42
8 45
8 46
8 50
8 54
8 56
8 57
8 58
8 59
8 60
8 62
8 63
8 64
8 65
8 67
8 69
8 70
8 71
8 73
8 81
8 87
8 90
8 91
8 94
8 95
8 96
8 97
8 99
8 104
8 105
8 107
8 108
8 111
8 113
8 115
8 119
8 122
8 123
8 124
8 125
8 129
8 134
8 135
8 137
8 138
8 141
8 142
8 144
8 148
8 150
9 11
9 12
9 13
9 14
9 16
9 17
9 21
9 22
9 23
9 26
9 27
9 28
9 30
9 32
9 33
9 36
9 38
9 41
9 42
9 49
9 50
9 52
9 53
9 55
9 56
9 64
9 65
9 68
9 69
9 73
9 74
9 75
9 77
9 79
9 80
9 81
9 83
9 86
9 87
9 88
9 89
9 90
9 93
9 95
9 96
9 102
9 107
9 108
9 109
9 110
9 111
9 112
9 116
9 117
9 118
9 119
9 120
9 122
9 123
9 125
9 126
9 127
9 129
9 131
9 132
9 134
9 135
9 136
9 137
9 139
9 140
9 144
9 147
9 148
9 150
10 12
10 14
10 17
10 21
10 23
10 24
10 25
10 27
10 28
10 29
10 30
10 32
10 34
10 35
10 37
10 40
10 41
10 43
10 45
10 47
10 50
10 51
10 54
10 56
10 57
10 59
10 60
10 61
10 62
10 65
10 68
10 71
10 73
10 78
10 79
10 85
10 86
10 89
10 90
10 91
10 95
10 98
10 103
10 107
10 108
10 111
10 112
10 113
10 115
10 118
10 120
10 122
10 126
10 129
10 130
10 131
10 132
10 136
10 137
10 139
10 141
10 143
10 147
11 13
11 17
11 19
11 20
11 21
11 22
11 24
11 25
11 26
11 29
11 36
11 38
11 41
11 42
11 43
11 44
11 45
11 46
11 47
11 48
11 50
11 51
11 52
11 53
11 54
11 56
11 58
11 60
11 63
11 66
11 67
11 68
11 69
11 72
11 73
11 74
11 75
11 83
11 84
11 85
11 86
11 93
11 96
11 98
11 101
11 102
11 104
11 105
11 110
11 111
11 114
11 115
11 117
11 119
11 120
11 123
11 125
11 126
11 128
11 131
11 133
11 134
11 135
11 136
11 137
11 138
11 140
11 141
11 146
11 147
11 150
12 14
12 17
12 18
12 19
12 20
12 32
12 35
12 36
12 41
12 42
12 43
12 44
12 46
12 47
12 48
12 49
12 52
12 53
12 57
12 59
12 61
12 62
12 63
12 66
12 67
12 68
12 69
12 70
12 72
12 76
12 77
12 78
12 81
12 82
12 85
12 87
12 88
12 89
12 91
12 92
12 94
12 95
12 98
12 100
12 102
12 104
12 105
12 106
12 109
12 110
12 112
12 115
12 116
12 119
12 120
12 121
12 123
12 124
12 125
12 126
12 128
12 130
12 131
12 134
12 142
12 143
12 144
12 145
12 146
12 147
13 15
13 17
13 18
13 19
13 22
13 23
13 24
13 25
13 29
13 30
13 32
13 35
13 39
13 40
13 41
13 43
13 44
13 46
13 48
13 51
13 53
13 54
13 55
13 56
13 57
13 58
13 60
13 62
13 65
13 67
13 68
13 70
13 71
13 74
13 77
13 79
13 82
13 83
13 91
13 93
13 94
13 95
13 98
13 100
13 101
13 104
13 107
13 108
13 112
13 114
13 115
13 116
13 117
13 118
13 121
13 122
13 127
13 128
13 129
13 135
13 137
13 140
13 141
13 149
14 15
14 16
14 19
14 21
14 23
14 28
14 31
14 32
14 33
14 34
14 35
14 37
14 38
14 39
14 40
14 41
14 43
14 44
14 45
14 46
14 47
14 48
14 52
14 53
14 56
14 59
14 61
14 62
14 63
14 64
14 65
14 66
14 68
14 73
14 74
14 75
14 78
14 83
14 84
14 85
14 91
14 92
14 94
14 101
14 102
14 105
14 106
14 107
14 110
14 111
14 112
14 114
14 117
14 120
14 122
14 123
14 131
14 132
14 135
14 139
14 140
14 141
14 144
14 145
14 146
14 149
15 18
15 20
15 22
15 25
15 30
15 31
15 33
15 34
15 36
15 37
15 38
15 41
15 43
15 44
15 47
15 49
15 50
15 54
15 55
15 56
15 60
15 68
15 70
15 76
15 78
15 79
15 80
15 82
15 86
15 88
15 90
15 97
15 98
15 99
15 103
15 105
15 106
15 107
15 112
15 113
15 115
15 116
15 117
15 120
15 121
15 122
15 126
15 127
15 128
15 129
15 130
15 131
15 132
15 133
15 134
15 135
15 136
15 138
15 139
15 140
15 142
15 145
15 147
15 150
16 17
16 18
16 22
16 24
16 29
16 30
16 36
16 38
16 41
16 42
16 45
16 50
16 51
16 53
16 54
16 56
16 57
16 59
16 60
16 62
16 63
16 65
16 66
16 68
16 70
16 71
16 73
16 74
16 75
16 78
16 80
16 81
16 82
16 85
16 87
16 89
16 91
16 93
16 96
16 100
16 102
16 104
16 105
16 110
16 113
16 114
16 117
16 118
16 119
16 120
16 123
16 124
16 127
16 129
16 131
16 132
16 133
16 136
16 137
16 139
16 142
16 143
16 145
17 18
17 19
17 20
17 22
17 24
17 26
17 32
17 34
17 36
17 38
17 39
17 40
17 41
17 42
17 43
17 47
17 49
17 51
17 53
17 54
17 55
17 58
17 60
17 61
17 62
17 63
17 64
17 67
17 71
17 72
17 75
17 79
17 80
17 86
17 87
17 89
17 93
17 95
17 97
17 98
17 101
17 102
17 107
17 109
17 111
17 113
17 118
17 121
17 123
17 124
17 125
17 127
17 129
17 130
17 132
17 133
17 134
17 136
17 137
17 139
17 142
17 143
17 144
17 145
17 147
18 19
18 23
18 28
18 30
18 31
18 32
18 33
18 34
18 36
18 38
18 39
18 40
18 42
18 43
18 44
18 45
18 47
18 49
18 51
18 53
18 56
18 58
18 62
18 63
18 67
18 68
18 71
18 72
18 74
18 75
18 77
18 83
18 86
18 87
18 88
18 93
18 94
18 95
18 96
18 97
18 98
18 100
18 103
18 104
18 106
18 107
18 109
18 110
18 111
18 112
18 113
18 115
18 117
18 118
18 119
18 120
18 121
18 122
18 123
18 124
18 125
18 130
18 133
18 134
18 136
18 137
18 138
18 142
18 143
18 145
18 146
18 150
19 20
19 23
19 26
19 27
19 30
19 31
19 32
19 38
19 40
19 41
19 44
19 46
19 47
19 49
19 50
19 51
19 52
19 55
19 57
19 58
19 60
19 63
19 64
19 67
19 68
19 70
19 71
19 72
19 77
19 78
19 80
19 81
19 82
19 83
19 85
19 87
19 88
19 91
19 93
19 97
19 99
19 102
19 105
19 108
19 111
19 112
19 114
19 115
19 116
19 119
19 120
19 122
19 123
19 124
19 126
19 131
19 134
19 136
19 138
19 141
19 142
19 144
19 145
19 148
20 21
20 23
20 25
20 27
20 28
20 38
20 39
20 40
20 41
20 45
20 47
20 48
20 49
20 50
20 52
20 53
20 55
20 59
20 60
20 61
20 62
20 63
20 64
20 65
20 66
20 67
20 70
20 72
20 73
20 75
20 77
20 78
20 79
20 80
20 81
20 82
20 84
20 85
20 86
20 87
20 96
20 97
20 100
20 104
20 107
20 108
20 110
20 111
20 112
20 113
20 115
20 117
20 119
20 120
20 121
20 122
20 124
20 126
20 127
20 128
20 129
20 133
20 134
20 138
20 140
20 145
20 147
21 25
21 27
21 28
21 29
21 33
21 36
21 37
21 40
21 41
21 42
21 47
21 48
21 50
21 53
21 54
21 56
21 58
21 59
21 61
21 62
21 66
21 67
21 68
21 69
21 71
21 72
21 73
21 75
21 76
21 77
21 78
21 80
21 81
21 83
21 84
21 85
21 87
21 90
21 93
21 98
21 105
21 106
21 107
21 108
21 109
21 110
21 114
21 115
21 116
21 117
21 120
21 121
21 124
21 125
21 126
21 127
21 128
21 129
21 130
21 132
21 133
21 136
21 138
21 140
21 141
21 145
21 148
21 149
22 24
22 31
22 32
22 34
22 36
22 37
22 41
22 42
22 44
22 47
22 49
22 51
22 52
22 53
22 55
22 57
22 58
22 59
22 61
22 63
22 65
22 67
22 68
22 69
22 70
22 71
22 72
22 74
22 78
22 79
22 82
22 84
22 86
22 88
22 90
22 92
22 98
22 100
22 101
22 102
22 103
22 105
22 106
22 109
22 111
22 113
22 114
22 115
22 116
22 124
22 126
22 128
22 129
22 136
22 138
22 139
22 140
22 141
22 143
22 144
23 24
23 27
23 28
23 31
23 36
23 38
23 39
23 40
23 42
23 43
23 45
23 47
23 48
23 49
23 50
23 52
23 53
23 54
23 56
23 57
23 58
23 59
23 61
23 64
23 67
23 69
23 70
23 71
23 74
23 76
23 77
23 79
23 80
23 81
23 82
23 88
23 89
23 90
23 92
23 93
23 95
23 96
23 97
23 101
23 102
23 103
23 104
23 105
23 107
23 109
23 111
23 112
23 114
23 116
23 117
23 118
23 119
23 122
23 123
23 127
23 129
23 132
23 135
23 136
23 140
23 147
23 148
23 149
23 150
24 27
24 28
24 30
24 31
24 33
24 35
24 37
24 38
24 39
24 40
24 41
24 42
24 43
24 46
24 47
24 52
24 53
24 54
24 55
24 56
24 57
24 58
24 61
24 64
24 65
24 67
24 68
24 69
24 70
24 73
24 74
24 76
24 78
24 84
24 89
24 90
24 91
24 93
24 95
24 97
24 98
24 100
24 102
24 104
24 105
24 106
24 107
24 108
24 111
24 112
24 117
24 118
24 119
24 120
24 121
24 124
24 126
24 129
24 130
24 132
24 136
24 137
24 141
24 142
24 143
24 145
24 149
24 150
25 26
25 29
25 32
25 37
25 39
25 41
25 42
25 44
25 45
25 47
25 50
25 51
25 53
25 55
25 56
25 59
25 61
25 63
25 64
25 65
25 66
25 67
25 68
25 70
25 71
25 75
25 78
25 79
25 80
25 81
25 83
25 89
25 98
25 99
25 100
25 102
25 103
25 105
25 108
25 113
25 116
25 120
25 121
25 122
25 126
25 128
25 130
25 131
25 133
25 134
25 135
25 136
25 139
25 141
25 142
25 144
25 146
25 147
25 148
26 27
26 28
26 30
26 32
26 38
26 41
26 42
26 44
26 45
26 47
26 48
26 50
26 53
26 55
26 57
26 66
26 68
26 71
26 74
26 75
26 76
26 78
26 80
26 81
26 82
26 86
26 88
26 90
26 93
26 95
26 97
26 98
26 100
26 103
26 104
26 107
26 113
26 114
26 115
26 122
26 124
26 130
26 131
26 132
26 133
26 135
26 136
26 137
26 140
26 143
26 144
26 145
26 146
26 147
26 148
26 149
27 29
27 32
27 33
27 34
27 35
27 36
27 38
27 39
27 41
27 42
27 44
27 48
27 49
27 52
27 53
27 54
27 57
27 60
27 62
27 64
27 65
27 66
27 67
27 69
27 71
27 74
27 75
27 76
27 78
27 79
27 81
27 84
27 86
27 88
27 90
27 94
27 95
27 96
27 97
27 102
27 103
27 105
27 106
27 107
27 108
27 110
27 111
27 113
27 117
27 119
27 120
27 121
27 125
27 126
27 129
27 131
27 132
27 134
27 135
27 138
27 139
27 141
27 142
27 144
27 147
27 149
28 29
28 32
28 34
28 37
28 38
28 40
28 41
28 42
28 43
28 45
28 46
28 48
28 50
28 51
28 52
28 55
28 58
28 59
28 60
28 63
28 64
28 65
28 68
28 69
28 70
28 71
28 77
28 79
28 81
28 84
28 85
28 87
28 88
28 91
28 95
28 96
28 97
28 99
28 100
28 101
28 102
28 104
28 109
28 110
28 113
28 114
28 120
28 122
28 125
28 127
28 133
28 135
28 136
28 137
28 138
28 140
28 141
28 142
28 145
28 147
28 150
29 30
29 33
29 34
29 37
29 38
29 39
29 41
29 42
29 43
29 45
29 49
29 50
29 52
29 54
29 56
29 58
29 59
29 60
29 62
29 63
29 67
29 68
29 72
29 73
29 79
29 80
29 84
29 86
29 89
29 91
29 93
29 96
29 97
29 101
29 103
29 104
29 105
29 106
29 108
29 109
29 110
29 111
29 115
29 116
29 117
29 121
29 123
29 124
29 125
29 126
29 127
29 130
29 131
29 134
29 135
29 137
29 140
29 142
29 143
29 144
30 31
30 32
30 33
30 37
30 38
30 39
30 42
30 45
30 46
30 53
30 55
30 56
30 59
30 60
30 64
30 65
30 67
30 68
30 71
30 72
30 74
30 79
30 80
30 81
30 82
30 83
30 84
30 85
30 89
30 91
30 93
30 95
30 97
30 99
30 100
30 101
30 102
30 104
30 105
30 108
30 110
30 113
30 114
30 115
30 116
30 117
30 119
30 121
30 122
30 123
30 125
30 129
30 131
30 132
30 134
30 136
30 138
30 139
30 142
30 144
30 145
31 33
31 35
31 36
31 37
31 40
31 42
31 43
31 46
31 48
31 50
31 54
31 55
31 56
31 58
31 60
31 62
31 63
31 64
31 66
31 67
31 71
31 72
31 73
31 74
31 76
31 77
31 78
31 80
31 81
31 83
31 84
31 85
31 87
31 89
31 91
31 96
31 97
31 99
31 100
31 101
31 102
31 103
31 104
31 106
31 107
31 108
31 109
31 111
31 115
31 116
31 117
31 118
31 120
31 121
31 122
31 124
31 126
31 127
31 132
31 133
31 134
31 137
31 138
31 140
31 142
31 143
31 144
31 146
31 147
31 150
32 36
32 39
32 40
32 41
32 42
32 45
32 46
32 50
32 51
32 52
32 54
32 55
32 56
32 60
32 62
32 65
32 66
32 67
32 69
32 72
32 74
32 75
32 76
32 78
32 81
32 82
32 87
32 88
32 89
32 91
32 92
32 93
32 95
32 96
32 98
32 99
32 100
32 102
32 107
32 108
32 109
32 110
32 111
32 112
32 115
32 116
32 117
32 119
32 120
32 122
32 124
32 128
32 130
32 132
32 134
32 135
32 136
32 140
32 142
32 148
33 34
33 37
33 38
33 42
33 44
33 45
33 48
33 49
33 50
33 51
33 52
33 53
33 54
33 57
33 58
33 59
33 60
33 62
33 63
33 64
33 69
33 75
33 77
33 78
33 80
33 81
33 83
33 84
33 87
33 88
33 91
33 92
33 93
33 97
33 99
33 100
33 103
33 104
33 106
33 109
33 111
33 112
33 114
33 115
33 117
33 118
33 120
33 121
33 124
33 127
33 128
33 129
33 130
33 131
33 132
33 137
33 146
33 147
33 148
34 35
34 37
34 39
34 42
34 43
34 44
34 45
34 48
34 50
34 52
34 53
34 55
34 58
34 59
34 63
34 67
34 68
34 69
34 72
34 75
34 76
34 80
34 82
34 84
34 85
34 88
34 89
34 92
34 94
34 96
34 100
34 101
34 102
34 103
34 104
34 109
34 111
34 113
34 116
34 118
34 119
34 120
34 122
34 124
34 129
34 130
34 138
34 143
34 144
34 146
35 38
35 40
35 41
35 43
35 44
35 45
35 48
35 50
35 51
35 52
35 53
35 55
35 57
35 59
35 61
35 65
35 66
35 67
35 69
35 74
35 77
35 78
35 80
35 81
35 82
35 83
35 86
35 87
35 88
35 91
35 92
35 95
35 96
35 99
35 102
35 104
35 105
35 111
35 112
35 115
35 117
35 119
35 124
35 126
35 127
35 129
35 130
35 136
35 137
35 138
35 139
35 141
35 144
35 149
35 150
36 37
36 38
36 42
36 43
36 44
36 45
36 48
36 49
36 50
36 51
36 56
36 57
36 59
36 60
36 61
36 62
36 65
36 67
36 68
36 69
36 71
36 78
36 79
36 80
36 81
36 86
36 89
36 91
36 93
36 99
36 101
36 103
36 104
36 106
36 107
36 109
36 110
36 114
36 115
36 116
36 117
36 119
36 120
36 121
36 123
36 124
36 127
36 128
36 130
36 131
36 132
36 134
36 141
36 142
36 143
36 147
36 148
36 149
37 39
37 40
37 41
37 43
37 47
37 48
37 50
37 54
37 57
37 59
37 60
37 61
37 63
37 64
37 66
37 67
37 69
37 73
37 74
37 75
37 76
37 77
37 79
37 82
37 85
37 86
37 87
37 89
37 90
37 93
37 95
37 96
37 97
37 101
37 102
37 106
37 107
37 108
37 110
37 113
37 114
37 117
37 118
37 121
37 125
37 126
37 127
37 128
37 129
37 133
37 135
37 137
37 138
37 139
37 140
37 141
37 149
37 150
38 39
38 41
38 42
38 43
38 45
38 47
38 48
38 51
38 54
38 56
38 57
38 59
38 60
38 63
38 67
38 68
38 69
38 73
38 76
38 79
38 80
38 83
38 84
38 86
38 88
38 90
38 92
38 93
38 94
38 95
38 99
38 101
38 103
38 104
38 106
38 107
38 108
38 110
38 111
38 112
38 113
38 114
38 116
38 117
38 118
38 119
38 120
38 121
38 122
38 125
38 126
38 128
38 129
38 131
38 133
38 135
38 137
38 140
38 142
38 143
38 144
38 145
38 147
38 148
38 149
39 40
39 41
39 43
39 45
39 49
39 51
39 52
39 54
39 56
39 58
39 60
39 62
39 63
39 67
39 70
39 71
39 72
39 74
39 75
39 76
39 77
39 78
39 79
39 80
39 81
39 83
39 88
39 90
39 93
39 94
39 95
39 96
39 97
39 101
39 103
39 105
39 110
39 111
39 114
39 117
39 124
39 126
39 127
39 128
39 129
39 130
39 131
39 132
39 133
39 134
39 137
39 139
39 140
39 141
39 143
39 144
39 146
39 147
39 149
39 150
40 41
40 42
40 43
40 44
40 45
40 46
40 48
40 49
40 51
40 52
40 53
40 55
40 58
40 60
40 61
40 64
40 65
40 66
40 68
40 69
40 70
40 71
40 74
40 77
40 80
40 82
40 84
40 85
40 86
40 89
40 92
40 93
40 94
40 95
40 96
40 100
40 102
40 103
40 105
40 109
40 112
40 115
40 118
40 121
40 122
40 124
40 128
40 129
40 130
40 131
40 132
40 133
40 135
40 137
40 139
40 140
40 141
40 143
40 145
40 146
40 147
40 148
40 149
40 150
41 44
41 47
41 52
41 54
41 55
41 56
41 61
41 64
41 66
41 67
41 71
41 72
41 74
41 75
41 76
41 80
41 82
41 88
41 90
41 92
41 93
41 97
41 100
41 101
41 102
41 103
41 107
41 108
41 110
41 111
41 113
41 114
41 115
41 116
41 118
41 119
41 120
41 121
41 122
41 123
41 124
41 126
41 129
41 130
41 134
41 135
41 136
41 137
41 138
41 143
41 144
41 146
41 147
42 43
42 44
42 46
42 47
42 50
42 51
42 53
42 54
42 57
42 58
42 60
42 62
42 63
42 64
42 69
42 71
42 72
42 78
42 80
42 84
42 85
42 86
42 87
42 89
42 90
42 93
42 95
42 97
42 100
42 104
42 105
42 106
42 107
42 108
42 110
42 111
42 113
42 115
42 116
42 117
42 118
42 119
42 122
42 124
42 126
42 128
42 131
42 135
42 136
42 137
42 143
42 145
42 148
42 149
43 46
43 48
43 49
43 50
43 53
43 54
43 55
43 56
43 57
43 59
43 62
43 64
43 65
43 67
43 69
43 70
43 71
43 74
43 81
43 82
43 83
43 84
43 85
43 88
43 91
43 92
43 93
43 96
43 98
43 100
43 101
43 102
43 103
43 104
43 105
43 106
43 107
43 108
43 110
43 111
43 113
43 115
43 117
43 118
43 119
43 120
43 122
43 124
43 125
43 126
43 128
43 132
43 134
43 135
43 137
43 141
43 143
43 145
44 48
44 49
44 50
44 53
44 55
44 58
44 61
44 62
44 64
44 66
44 67
44 68
44 74
44 86
44 87
44 88
44 91
44 92
44 93
44 96
44 97
44 98
44 101
44 103
44 104
44 106
44 107
44 111
44 113
44 115
44 122
44 124
44 126
44 127
44 129
44 130
44 131
44 132
44 133
44 135
44 137
44 138
44 139
44 140
44 142
44 146
44 148
45 47
45 48
45 52
45 53
45 58
45 59
45 62
45 63
45 66
45 67
45 70
45 71
45 72
45 73
45 75
45 77
45 82
45 85
45 89
45 90
45 92
45 95
45 96
45 102
45 104
45 106
45 108
45 109
45 114
45 115
45 116
45 119
45 121
45 129
45 131
45 133
45 135
45 136
45 137
45 138
45 141
45 142
45 143
45 148
45 150
46 47
46 48
46 50
46 51
46 52
46 53
46 56
46 57
46 58
46 59
46 62
46 66
46 69
46 71
46 73
46 76
46 80
46 82
46 85
46 93
46 96
46 98
46 103
46 104
46 105
46 107
46 112
46 115
46 116
46 118
46 121
46 122
46 123
46 130
46 137
46 138
46 139
46 140
46 142
46 144
46 145
46 146
46 147
46 149
46 150
47 48
47 49
47 51
47 53
47 54
47 55
47 60
47 66
47 67
47 69
47 70
47 76
47 78
47 80
47 81
47 83
47 85
47 86
47 87
47 89
47 97
47 98
47 99
47 101
47 105
47 106
47 107
47 108
47 110
47 111
47 113
47 118
47 120
47 121
47 126
47 127
47 128
47 132
47 133
47 135
47 139
47 141
47 143
47 145
47 150
48 51
48 54
48 55
48 56
48 57
48 60
48 64
48 65
48 66
48 67
48 68
48 70
48 72
48 73
48 75
48 79
48 82
48 83
48 84
48 87
48 89
48 90
48 98
48 99
48 100
48 102
48 103
48 104
48 106
48 107
48 108
48 109
48 110
48 111
48 115
48 116
48 119
48 120
48 121
48 123
48 124
48 125
48 126
48 128
48 130
48 131
48 132
48 133
48 134
48 135
48 139
48 140
48 141
48 143
48 144
48 145
48 148
49 50
49 51
49 52
49 56
49 57
49 59
49 60
49 63
49 64
49 65
49 70
49 71
49 73
49 77
49 78
49 79
49 80
49 81
49 82
49 83
49 84
49 85
49 87
49 88
49 91
49 92
49 97
49 98
49 99
49 100
49 101
49 102
49 103
49 104
49 105
49 106
49 107
49 109
49 110
49 116
49 117
49 119
49 121
49 122
49 125
49 127
49 132
49 134
49 135
49 139
49 142
49 147
49 150
50 52
50 53
50 55
50 56
50 60
50 61
50 62
50 63
50 64
50 68
50 69
50 72
50 76
50 77
50 78
50 79
50 80
50 81
50 82
50 88
50 91
50 92
50 93
50 95
50 99
50 100
50 103
50 111
50 113
50 120
50 121
50 122
50 123
50 126
50 127
50 129
50 136
50 138
50 139
50 140
50 143
50 144
50 145
50 147
50 148
51 53
51 54
51 55
51 56
51 57
51 60
51 61
51 63
51 71
51 73
51 76
51 78
51 79
51 80
51 81
51 83
51 84
51 86
51 87
51 90
51 91
51 93
51 94
51 96
51 97
51 98
51 103
51 104
51 105
51 106
51 107
51 109
51 110
51 111
51 112
51 114
51 119
51 121
51 123
51 125
51 126
51 127
51 129
51 130
51 131
51 133
51 139
51 140
51 143
51 144
51 147
51 150
52 55
52 57
52 61
52 62
52 64
52 66
52 68
52 70
52 79
52 84
52 85
52 91
52 92
52 95
52 97
52 98
52 99
52 100
52 101
52 103
52 105
52 106
52 107
52 111
52 113
52 115
52 116
52 117
52 118
52 120
52 121
52 122
52 123
52 124
52 126
52 130
52 133
52 134
52 137
52 142
52 144
52 145
52 146
52 148
52 150
53 55
53 58
53 60
53 61
53 65
53 68
53 74
53 75
53 79
53 82
53 83
53 84
53 86
53 88
53 90
53 94
53 95
53 100
53 101
53 102
53 103
53 104
53 107
53 108
53 109
53 111
53 112
53 113
53 118
53 119
53 121
53 126
53 131
53 132
53 134
53 139
53 142
53 143
53 145
53 148
53 150
54 55
54 56
54 57
54 59
54 61
54 62
54 64
54 66
54 67
54 68
54 70
54 71
54 72
54 73
54 75
54 81
54 87
54 93
54 96
54 100
54 104
54 106
54 107
54 114
54 115
54 116
54 117
54 119
54 121
54 122
54 124
54 128
54 132
54 134
54 135
54 136
54 137
54 138
54 141
54 144
54 147
54 148
54 150
55 57
55 59
55 61
55 64
55 65
55 72
55 73
55 76
55 78
55 79
55 80
55 81
55 82
55 85
55 88
55 93
55 95
55 97
55 100
55 103
55 104
55 106
55 108
55 109
55 110
55 112
55 114
55 115
55 116
55 118
55 120
55 122
55 123
55 125
55 126
55 128
55 129
55 130
55 135
55 136
55 137
55 139
55 140
55 141
55 142
55 143
55 144
55 147
55 148
55 149
56 57
56 58
56 59
56 61
56 65
56 66
56 67
56 71
56 73
56 77
56 80
56 84
56 87
56 89
56 90
56 91
56 95
56 96
56 97
56 101
56 103
56 106
56 107
56 108
56 109
56 110
56 111
56 115
56 116
56 117
56 120
56 122
56 123
56 128
56 129
56 131
56 132
56 134
56 135
56 137
56 142
56 146
56 147
56 149
57 60
57 64
57 68
57 70
57 72
57 73
57 78
57 79
57 81
57 82
57 84
57 86
57 89
57 90
57 91
57 94
57 95
57 96
57 97
57 98
57 100
57 101
57 104
57 105
57 107
57 108
57 109
57 111
57 112
57 114
57 115
57 117
57 121
57 122
57 125
57 126
57 127
57 128
57 130
57 131
57 134
57 135
57 136
57 137
57 141
57 143
57 145
57 146
57 147
57 148
58 62
58 63
58 64
58 65
58 68
58 69
58 71
58 72
58 73
58 75
58 76
58 77
58 78
58 81
58 82
58 85
58 87
58 91
58 93
58 95
58 96
58 99
58 100
58 102
58 104
58 107
58 108
58 109
58 112
58 113
58 114
58 115
58 116
58 118
58 122
58 124
58 125
58 131
58 132
58 133
58 135
58 136
58 139
58 140
58 141
58 142
58 144
58 145
58 148
59 61
59 63
59 65
59 67
59 68
59 69
59 71
59 73
59 75
59 76
59 77
59 79
59 80
59 81
59 82
59 83
59 84
59 85
59 87
59 89
59 96
59 99
59 101
59 104
59 108
59 109
59 110
59 112
59 113
59 114
59 115
59 118
59 122
59 123
59 125
59 128
59 129
59 131
59 133
59 134
59 135
59 138
59 145
59 146
59 147
59 149
59 150
60 63
60 65
60 73
60 74
60 76
60 77
60 80
60 82
60 85
60 87
60 89
60 92
60 93
60 94
60 95
60 96
60 97
60 98
60 99
60 101
60 102
60 103
60 104
60 106
60 112
60 117
60 118
60 119
60 120
60 122
60 123
60 125
60 128
60 129
60 130
60 131
60 132
60 133
60 134
60 135
60 138
60 139
60 140
60 141
60 142
60 145
60 146
60 147
61 63
61 64
61 67
61 69
61 72
61 73
61 78
61 80
61 81
61 82
61 89
61 90
61 91
61 92
61 93
61 96
61 98
61 101
61 102
61 104
61 106
61 107
61 108
61 114
61 115
61 116
61 117
61 118
61 119
61 122
61 123
61 124
61 130
61 137
61 140
61 141
61 149
62 63
62 64
62 67
62 69
62 71
62 72
62 75
62 76
62 77
62 78
62 80
62 83
62 86
62 87
62 89
62 90
62 92
62 93
62 95
62 98
62 99
62 101
62 108
62 109
62 110
62 111
62 112
62 118
62 121
62 122
62 124
62 125
62 128
62 129
62 131
62 132
62 133
62 134
62 135
62 138
62 139
62 144
62 145
62 146
62 147
62 148
62 149
63 65
63 67
63 68
63 69
63 70
63 74
63 75
63 77
63 81
63 83
63 88
63 89
63 91
63 92
63 94
63 95
63 98
63 99
63 100
63 102
63 103
63 104
63 105
63 107
63 109
63 112
63 117
63 118
63 120
63 121
63 122
63 127
63 133
63 134
63 137
63 138
63 139
63 141
63 147
63 148
63 149
63 150
64 66
64 69
64 70
64 73
64 77
64 78
64 80
64 81
64 82
64 83
64 84
64 86
64 89
64 91
64 93
64 96
64 99
64 102
64 104
64 106
64 107
64 109
64 111
64 113
64 114
64 115
64 117
64 119
64 120
64 125
64 126
64 127
64 128
64 131
64 133
64 134
64 135
64 137
64 140
64 141
64 143
64 148
65 66
65 67
65 68
65 72
65 73
65 78
65 80
65 83
65 87
65 90
65 92
65 93
65 96
65 98
65 99
65 104
65 106
65 107
65 109
65 110
65 111
65 113
65 116
65 118
65 119
65 121
65 122
65 123
65 127
65 130
65 132
65 134
65 135
65 140
65 141
65 143
65 147
65 148
65 150
66 67
66 68
66 69
66 73
66 77
66 81
66 87
66 89
66 90
66 92
66 95
66 96
66 97
66 98
66 100
66 105
66 106
66 108
66 111
66 112
66 113
66 114
66 115
66 117
66 118
66 119
66 121
66 125
66 126
66 128
66 131
66 134
66 135
66 136
66 139
66 140
66 141
66 142
66 144
66 146
66 147
66 149
67 69
67 70
67 71
67 72
67 77
67 78
67 83
67 84
67 87
67 89
67 90
67 91
67 92
67 95
67 99
67 100
67 101
67 102
67 103
67 105
67 106
67 108
67 110
67 111
67 113
67 116
67 118
67 121
67 122
67 124
67 127
67 131
67 133
67 140
67 141
67 143
67 144
67 146
67 148
67 149
67 150
68 69
68 73
68 75
68 77
68 78
68 79
68 80
68 82
68 83
68 84
68 85
68 86
68 87
68 88
68 90
68 91
68 92
68 95
68 96
68 99
68 104
68 106
68 108
68 112
68 113
68 115
68 119
68 122
68 123
68 124
68 125
68 126
68 128
68 131
68 132
68 133
68 135
68 137
68 145
68 146
68 148
69 70
69 72
69 73
69 79
69 81
69 82
69 84
69 86
69 88
69 89
69 91
69 93
69 94
69 99
69 100
69 104
69 105
69 106
69 107
69 110
69 113
69 114
69 115
69 116
69 119
69 123
69 124
69 125
69 129
69 131
69 134
69 135
69 137
69 138
69 139
69 141
69 143
69 146
69 147
69 148
69 149
70 73
70 74
70 77
70 78
70 79
70 81
70 83
70 85
70 86
70 87
70 89
70 92
70 93
70 97
70 98
70 100
70 101
70 103
70 107
70 108
70 109
70 112
70 113
70 115
70 116
70 117
70 119
70 120
70 125
70 126
70 127
70 128
70 132
70 141
70 143
70 144
70 145
70 147
71 74
71 76
71 78
71 84
71 86
71 88
71 89
71 90
71 91
71 92
71 95
71 96
71 100
71 101
71 103
71 104
71 107
71 112
71 114
71 118
71 120
71 124
71 130
71 131
71 132
71 133
71 135
71 139
71 140
71 141
71 142
71 143
71 144
71 146
71 147
71 148
72 74
72 75
72 76
72 77
72 78
72 80
72 83
72 84
72 85
72 87
72 88
72 89
72 90
72 91
72 95
72 96
72 97
72 98
72 99
72 106
72 107
72 108
72 109
72 111
72 114
72 115
72 116
72 117
72 119
72 125
72 127
72 128
72 130
72 132
72 134
72 137
72 138
72 141
72 143
72 144
72 145
72 146
72 148
72 149
72 150
73 74
73 80
73 82
73 83
73 85
73 87
73 88
73 91
73 93
73 97
73 99
73 103
73 105
73 107
73 108
73 111
73 112
73 114
73 115
73 117
73 118
73 119
73 121
73 124
73 125
73 126
73 127
73 128
73 129
73 130
73 134
73 135
73 136
73 139
73 140
73 144
73 146
73 148
73 149
74 75
74 76
74 77
74 78
74 79
74 80
74 85
74 86
74 88
74 89
74 93
74 98
74 99
74 103
74 104
74 106
74 107
74 108
74 109
74 112
74 113
74 114
74 117
74 118
74 119
74 124
74 125
74 127
74 129
74 132
74 136
74 137
74 141
74 142
74 145
74 147
74 150
75 76
75 77
75 78
75 81
75 82
75 87
75 88
75 90
75 91
75 93
75 94
75 96
75 97
75 101
75 104
75 105
75 107
75 110
75 113
75 115
75 116
75 117
75 118
75 120
75 121
75 123
75 124
75 126
75 128
75 129
75 131
75 133
75 134
75 135
75 136
75 137
75 139
75 140
75 142
75 143
75 144
75 150
76 80
76 81
76 83
76 84
76 86
76 87
76 89
76 92
76 93
76 102
76 104
76 110
76 111
76 114
76 119
76 123
76 124
76 125
76 127
76 133
76 139
76 141
76 142
76 143
76 145
76 146
76 149
76 150
77 79
77 80
77 82
77 83
77 85
77 86
77 96
77 98
77 99
77 102
77 103
77 105
77 106
77 107
77 109
77 110
77 112
77 116
77 117
77 121
77 124
77 125
77 127
77 128
77 129
77 131
77 133
77 134
77 139
77 140
77 141
77 142
77 144
77 145
77 147
77 149
77 150
78 83
78 85
78 86
78 87
78 88
78 89
78 90
78 93
78 94
78 95
78 99
78 108
78 109
78 111
78 112
78 113
78 114
78 117
78 118
78 119
78 120
78 121
78 123
78 125
78 127
78 128
78 129
78 130
78 132
78 133
78 135
78 140
78 141
78 146
78 148
79 82
79 83
79 87
79 90
79 99
79 100
79 104
79 105
79 106
79 107
79 108
79 109
79 113
79 114
79 115
79 117
79 118
79 119
79 122
79 123
79 125
79 127
79 128
79 129
79 131
79 132
79 135
79 136
79 138
79 141
79 142
79 144
79 145
79 146
79 147
80 81
80 88
80 89
80 91
80 92
80 96
80 100
80 104
80 105
80 106
80 107
80 108
80 109
80 110
80 112
80 114
80 115
80 117
80 120
80 122
80 125
80 127
80 129
80 130
80 131
80 133
80 134
80 135
80 136
80 137
80 139
80 143
80 145
80 147
80 150
81 82
81 84
81 86
81 87
81 88
81 89
81 91
81 92
81 95
81 99
81 101
81 102
81 103
81 106
81 107
81 108
81 109
81 114
81 115
81 116
81 117
81 124
81 125
81 129
81 131
81 133
81 134
81 138
81 139
81 142
81 144
81 146
81 147
81 148
81 150
82 83
82 85
82 87
82 88
82 89
82 90
82 92
82 95
82 96
82 97
82 99
82 101
82 102
82 104
82 106
82 107
82 110
82 111
82 112
82 113
82 114
82 115
82 120
82 124
82 127
82 130
82 131
82 133
82 134
82 135
82 137
82 140
82 142
82 143
82 144
82 145
82 146
82 149
83 86
83 87
83 89
83 90
83 91
83 96
83 101
83 103
83 108
83 111
83 112
83 114
83 115
83 116
83 117
83 118
83 121
83 122
83 123
83 125
83 126
83 127
83 131
83 132
83 133
83 134
83 135
83 137
83 139
83 140
83 141
83 142
83 143
83 145
83 148
83 149
84 86
84 91
84 94
84 96
84 97
84 100
84 103
84 106
84 108
84 109
84 110
84 111
84 112
84 114
84 116
84 117
84 120
84 123
84 124
84 126
84 134
84 138
84 140
84 141
84 143
84 147
84 149
85 86
85 89
85 91
85 93
85 97
85 98
85 99
85 100
85 101
85 102
85 103
85 107
85 109
85 110
85 112
85 113
85 114
85 116
85 120
85 121
85 123
85 129
85 130
85 137
85 138
85 140
85 142
85 143
85 146
85 147
85 149
86 87
86 91
86 95
86 96
86 97
86 98
86 99
86 100
86 101
86 104
86 113
86 114
86 117
86 120
86 123
86 125
86 129
86 130
86 131
86 132
86 134
86 138
86 140
86 141
86 143
86 144
86 146
86 147
86 148
86 150
87 88
87 90
87 93
87 94
87 95
87 96
87 99
87 101
87 104
87 106
87 107
87 108
87 111
87 112
87 113
87 114
87 117
87 119
87 123
87 124
87 125
87 126
87 128
87 129
87 131
87 132
87 134
87 135
87 136
87 137
87 139
87 141
87 142
87 144
87 145
87 146
87 149
88 89
88 91
88 92
88 93
88 94
88 95
88 99
88 101
88 103
88 105
88 106
88 107
88 108
88 113
88 114
88 115
88 116
88 117
88 119
88 126
88 127
88 128
88 129
88 130
88 131
88 132
88 134
88 139
88 142
88 143
88 145
88 146
88 147
88 150
89 91
89 92
89 93
89 94
89 99
89 101
89 104
89 106
89 107
89 108
89 109
89 113
89 114
89 117
89 118
89 121
89 124
89 126
89 127
89 128
89 130
89 131
89 132
89 133
89 134
89 135
89 136
89 137
89 139
89 140
89 141
89 142
89 143
89 146
89 147
89 148
89 150
90 95
90 96
90 97
90 98
90 99
90 103
90 104
90 105
90 106
90 107
90 112
90 117
90 119
90 120
90 122
90 123
90 125
90 126
90 129
90 130
90 133
90 134
90 135
90 138
90 141
90 142
90 143
90 147
90 148
91 92
91 93
91 94
91 99
91 100
91 101
91 102
91 103
91 106
91 107
91 113
91 114
91 119
91 120
91 124
91 125
91 126
91 130
91 131
91 132
91 133
91 134
91 135
91 139
91 141
91 146
91 149
92 93
92 94
92 95
92 96
92 97
92 100
92 101
92 105
92 107
92 109
92 110
92 112
92 113
92 115
92 117
92 118
92 120
92 121
92 122
92 123
92 124
92 126
92 128
92 129
92 132
92 133
92 135
92 137
92 140
92 141
92 142
92 143
92 145
93 96
93 99
93 101
93 102
93 104
93 107
93 108
93 112
93 113
93 115
93 116
93 117
93 119
93 120
93 121
93 122
93 124
93 125
93 126
93 127
93 130
93 131
93 132
93 133
93 134
93 135
93 136
93 138
93 142
93 143
93 145
93 148
93 150
94 95
94 100
94 102
94 103
94 104
94 106
94 108
94 113
94 116
94 117
94 118
94 121
94 123
94 124
94 127
94 128
94 129
94 133
94 136
94 137
94 139
94 142
94 143
94 145
94 146
94 147
94 148
95 96
95 97
95 98
95 102
95 103
95 105
95 107
95 109
95 110
95 112
95 115
95 116
95 117
95 119
95 122
95 124
95 125
95 126
95 129
95 130
95 131
95 133
95 134
95 135
95 136
95 137
95 138
95 141
95 142
95 144
95 145
95 146
95 147
95 148
95 149
96 98
96 102
96 103
96 104
96 106
96 108
96 109
96 114
96 115
96 117
96 118
96 119
96 120
96 121
96 124
96 126
96 129
96 130
96 131
96 132
96 135
96 136
96 137
96 138
96 139
96 141
96 142
96 143
96 144
96 146
96 147
96 149
97 98
97 100
97 101
97 104
97 107
97 108
97 111
97 113
97 115
97 117
97 118
97 119
97 121
97 122
97 127
97 128
97 129
97 130
97 131
97 135
97 136
97 137
97 139
97 142
97 143
97 144
97 145
97 147
97 148
97 150
98 100
98 101
98 103
98 104
98 105
98 107
98 108
98 109
98 110
98 113
98 115
98 117
98 118
98 119
98 121
98 124
98 126
98 127
98 129
98 132
98 134
98 135
98 136
98 138
98 140
98 141
98 144
98 146
98 147
98 150
99 103
99 107
99 108
99 111
99 113
99 114
99 116
99 118
99 119
99 121
99 122
99 124
99 125
99 129
99 131
99 133
99 137
99 139
99 140
99 144
99 145
99 147
99 148
99 149
99 150
100 101
100 102
100 103
100 107
100 109
100 112
100 114
100 115
100 116
100 117
100 118
100 122
100 123
100 124
100 126
100 127
100 128
100 129
100 130
100 133
100 134
100 136
100 137
100 138
100 145
100 146
100 147
100 148
100 150
101 105
101 106
101 110
101 112
101 113
101 116
101 119
101 120
101 121
101 122
101 125
101 127
101 128
101 132
101 133
101 134
101 135
101 136
101 137
101 142
101 143
101 144
101 147
101 148
101 149
101 150
102 103
102 104
102 105
102 106
102 107
102 108
102 114
102 117
102 118
102 119
102 120
102 122
102 123
102 125
102 126
102 127
102 128
102 129
102 132
102 135
102 136
102 140
102 142
102 144
102 145
102 148
102 149
103 104
103 108
103 110
103 112
103 113
103 116
103 117
103 118
103 125
103 127
103 128
103 130
103 131
103 132
103 136
103 140
103 145
103 146
103 150
104 105
104 109
104 111
104 112
104 114
104 115
104 120
104 121
104 122
104 123
104 125
104 126
104 127
104 128
104 130
104 138
104 139
104 144
104 145
104 146
105 106
105 109
105 110
105 112
105 117
105 118
105 119
105 121
105 123
105 127
105 128
105 132
105 133
105 135
105 136
105 138
105 143
105 145
105 146
105 149
105 150
106 109
106 110
106 114
106 117
106 118
106 119
106 120
106 122
106 123
106 126
106 128
106 129
106 131
106 132
106 136
106 137
106 138
106 141
106 142
106 143
106 146
106 147
107 112
107 113
107 114
107 115
107 120
107 123
107 126
107 131
107 133
107 135
107 136
107 137
107 139
107 140
107 142
107 143
107 144
107 146
107 147
107 149
107 150
108 110
108 111
108 112
108 118
108 119
108 120
108 121
108 122
108 124
108 126
108 130
108 136
108 140
108 141
108 142
108 143
108 145
108 146
109 112
109 114
109 115
109 120
109 123
109 125
109 127
109 129
109 130
109 133
109 134
109 137
109 138
109 140
109 141
109 142
109 143
109 145
109 146
109 148
110 117
110 118
110 123
110 127
110 129
110 130
110 131
110 132
110 135
110 137
110 141
110 143
110 144
110 145
110 147
110 148
110 149
110 150
111 112
111 113
111 114
111 117
111 118
111 127
111 128
111 129
111 131
111 132
111 134
111 136
111 137
111 138
111 139
111 144
111 145
111 146
111 149
111 150
112 117
112 119
112 120
112 124
112 125
112 127
112 128
112 129
112 130
112 134
112 137
112 138
112 139
112 143
112 144
112 145
112 148
113 115
113 117
113 118
113 120
113 122
113 125
113 129
113 130
113 132
113 138
113 139
113 141
113 147
113 148
114 115
114 116
114 118
114 120
114 121
114 122
114 124
114 128
114 132
114 134
114 135
114 138
114 141
114 145
114 146
114 147
115 118
115 120
115 121
115 124
115 125
115 129
115 130
115 134
115 135
115 137
115 139
115 140
115 141
115 143
115 144
115 147
115 148
115 150
116 119
116 121
116 126
116 128
116 129
116 130
116 131
116 133
116 136
116 137
116 138
116 140
116 141
116 142
116 143
116 144
116 146
116 148
117 119
117 121
117 122
117 123
117 124
117 125
117 127
117 131
117 132
117 134
117 139
117 140
117 144
117 145
117 150
118 119
118 120
118 121
118 122
118 124
118 127
118 129
118 130
118 131
118 135
118 137
118 143
118 144
118 148
119 120
119 121
119 125
119 128
119 130
119 133
119 135
119 136
119 138
119 139
119 141
119 143
119 144
119 146
119 148
119 150
120 121
120 123
120 124
120 128
120 130
120 131
120 133
120 135
120 139
120 140
120 141
120 142
120 143
120 147
120 149
121 122
121 123
121 124
121 125
121 126
121 127
121 129
121 130
121 132
121 133
121 134
121 135
121 138
121 139
121 141
121 143
121 144
121 146
121 147
121 149
121 150
122 128
122 129
122 130
122 131
122 133
122 135
122 136
122 137
122 148
123 124
123 130
123 134
123 135
123 137
123 139
123 141
123 144
123 145
123 146
124 125
124 126
124 127
124 129
124 132
124 135
124 136
124 137
124 138
124 139
124 145
124 146
124 148
124 149
125 129
125 130
125 132
125 133
125 134
125 136
125 140
125 141
125 142
125 145
125 147
125 148
125 149
125 150
126 128
126 131
126 132
126 133
126 134
126 135
126 136
126 137
126 139
126 140
126 144
126 146
126 148
126 149
126 150
127 128
127 131
127 132
127 134
127 135
127 142
127 143
127 144
127 150
128 129
128 131
128 132
128 134
128 136
128 138
128 139
128 146
128 147
128 148
128 149
128 150
129 131
129 132
129 135
129 138
129 139
129 144
129 146
129 147
129 150
130 132
130 133
130 136
130 138
130 141
130 142
130 145
130 146
131 135
131 137
131 142
131 143
131 144
131 147
132 136
132 139
132 141
132 144
132 146
132 148
132 149
132 150
133 136
133 139
133 142
133 144
133 145
133 146
133 147
133 149
133 150
134 135
134 137
134 139
134 140
134 147
134 148
134 149
135 137
135 140
135 141
135 142
135 143
135 147
135 150
136 137
136 140
136 142
136 146
136 147
136 149
136 150
137 139
137 141
137 142
137 143
137 145
137 146
137 150
138 139
138 140
138 141
138 142
138 144
138 146
138 147
138 149
139 141
139 144
139 147
139 150
140 141
140 147
140 148
140 150
141 145
141 146
141 149
141 150
142 143
142 146
142 147
142 150
143 150
144 145
144 147
144 148
144 150
145 146
145 148
146 149
147 150
149 150
